WARNING: for repeatability, setting FPU to use double precision
============================[ Problem Statistics ]=============================
|                                                                             |
|  Number of variables:           100                                         |
|  Number of clauses:             449                                         |
|  Parse time:                   0.00 s                                       |
|  Simplification time:          0.00 s                                       |
|                                                                             |
============================[ Search Statistics ]==============================
| Conflicts |          ORIGINAL         |          LEARNT          | Progress |
|           |    Vars  Clauses Literals |    Limit  Clauses Lit/Cl |          |
===============================================================================
|       100 |     100      449     1347 |      164      100      7 |  0.010 % |
|       250 |     100      449     1347 |      181      166      6 |  0.011 % |
===============================================================================
restarts              : 3
conflicts             : 335            (84319 /sec)
decisions             : 420            (0.00 % random) (105714 /sec)
propagations          : 7230           (1819784 /sec)
conflict literals     : 2016           (21.46 % deleted)
Memory used           : 13.00 MB
CPU time              : 0.003973 s

SATISFIABLE
